
--- Job RCPSP2.gms Start 03/11/15 17:29:39 24.4.1 r50296 WEX-VS8 x86 32bit/MS Windows
GAMS 24.4.1   Copyright (C) 1987-2014 GAMS Development. All rights reserved
Licensee: Kurslizenz                                     S140303/0001AW-GEN
          Leibniz University Hannover, Lehrstuhl fuer ProduktionswirtDC6657
          License for teaching and research at degree granting institutions
--- Starting compilation
--- RCPSP2.gms(40) 2 Mb
--- .RCPSP2_Input.inc(65) 3 Mb
--- RCPSP2.gms(173) 3 Mb
--- Starting execution: elapsed 0:00:00.012
--- RCPSP2.gms(200) 4 Mb
--- Generating MIP model RCPSP2
--- RCPSP2.gms(202) 4 Mb
---   66 rows  87 columns  295 non-zeroes
---   42 discrete-columns
--- Executing CPLEX: elapsed 0:00:00.047

IBM ILOG CPLEX   24.4.1 r50296 Released Dec 20, 2014 VS8 x86 32bit/MS Windows 
Cplex 12.6.1.0

Reading data...
Starting Cplex...
Space for names approximately 0.00 Mb
Use option 'names no' to turn use of names off
Tried aggregator 2 times.
MIP Presolve eliminated 41 rows and 44 columns.
MIP Presolve modified 121 coefficients.
Aggregator did 5 substitutions.
Reduced MIP has 20 rows, 38 columns, and 95 nonzeros.
Reduced MIP has 25 binaries, 0 generals, 0 SOSs, and 0 indicators.
Presolve time = 0.00 sec. (0.23 ticks)
Found incumbent of value 63.000000 after 0.00 sec. (0.28 ticks)
Probing time = 0.00 sec. (0.03 ticks)
Tried aggregator 2 times.
MIP Presolve eliminated 6 rows and 12 columns.
MIP Presolve modified 16 coefficients.
Aggregator did 2 substitutions.
Reduced MIP has 12 rows, 24 columns, and 57 nonzeros.
Reduced MIP has 17 binaries, 7 generals, 0 SOSs, and 0 indicators.
Presolve time = 0.00 sec. (0.10 ticks)
Probing time = 0.00 sec. (0.01 ticks)
Tried aggregator 1 time.
MIP Presolve eliminated 2 rows and 4 columns.
MIP Presolve modified 6 coefficients.
Reduced MIP has 10 rows, 20 columns, and 43 nonzeros.
Reduced MIP has 13 binaries, 7 generals, 0 SOSs, and 0 indicators.
Presolve time = 0.08 sec. (0.04 ticks)
Probing time = 0.00 sec. (0.01 ticks)
Clique table members: 2.
MIP emphasis: balance optimality and feasibility.
MIP search method: dynamic search.
Parallel mode: none, using 1 thread.
Tried aggregator 1 time.
No LP presolve or aggregator reductions.
Presolve time = 0.00 sec. (0.01 ticks)
Initializing dual steep norms . . .
Root relaxation solution time = 0.00 sec. (0.01 ticks)

        Nodes                                         Cuts/
   Node  Left     Objective  IInf  Best Integer    Best Bound    ItCnt     Gap

*     0+    0                           63.0000       -0.0000           100.00%
Found incumbent of value 63.000000 after 0.08 sec. (0.53 ticks)
*     0     0      integral     0       -0.0000       -0.0000        0    0.00%
Elapsed time = 0.08 sec. (0.53 ticks, tree = 0.00 MB, solutions = 2)
Found incumbent of value -0.000000 after 0.08 sec. (0.53 ticks)

Root node processing (before b&c):
  Real time             =    0.08 sec. (0.54 ticks)
Sequential b&c:
  Real time             =    0.00 sec. (0.00 ticks)
                          ------------
Total (root+branch&cut) =    0.08 sec. (0.54 ticks)
MIP status(101): integer optimal solution
Cplex Time: 0.08sec (det. 0.54 ticks)
Fixing integer variables, and solving final LP...
Tried aggregator 1 time.
LP Presolve eliminated 66 rows and 87 columns.
All rows and columns eliminated.
Presolve time = 0.00 sec. (0.03 ticks)
Fixed MIP status(1): optimal
Cplex Time: 0.00sec (det. 0.05 ticks)

Proven optimal solution.

MIP Solution:           -0.000000    (0 iterations, 0 nodes)
Final Solve:             0.000000    (0 iterations)

Best possible:          -0.000000
Absolute gap:            0.000000
Relative gap:            0.000000

--- Restarting execution
--- RCPSP2.gms(202) 2 Mb
--- Reading solution for model RCPSP2
--- Executing after solve: elapsed 0:00:00.333
--- RCPSP2.gms(238) 3 Mb
--- Putfile outputfile1 C:\Sites\as-rcpsp\RCPSP2_solution_kosten.txt
--- Putfile outputfile2 C:\Sites\as-rcpsp\RCPSP2_solution_zeit.txt
--- Putfile outputfile3 C:\Sites\as-rcpsp\RCPSP2_solution_zw.txt
*** Status: Normal completion
--- Job RCPSP2.gms Stop 03/11/15 17:29:40 elapsed 0:00:00.336
